c User generated cnf file
p cnf 15 48
1 -7 9 0 
12 -7 5 0 
7 12 -7 0 
2 12 -13 0 
1 11 -3 0 
7 13 -8 0 
12 -8 9 0 
2 13 -5 0 
2 11 -4 0 
7 11 -11 0 
4 2 -7 0 
7 5 -6 0 
5 11 -1 0 
10 -11 12 0 
2 -4 1 0 
3 13 -3 0 
6 9 -12 0 
4 12 -3 0 
14 8 -8 0 
10 -13 12 0 
7 5 -8 0 
12 2 -8 0 
14 -7 13 0 
12 1 -2 0 
2 -5 7 0 
7 -14 3 0 
1 7 -6 0 
12 1 -13 0 
11 1 -2 0 
6 -9 14 0 
12 7 -4 0 
6 -7 11 0 
2 15 -1 0 
11 12 -7 0 
9 7 -1 0 
6 -11 8 0 
10 5 -10 0 
5 -4 5 0 
14 10 -15 0 
3 7 -12 0 
7 -6 1 0 
9 -9 13 0 
10 -15 12 0 
9 -9 9 0 
2 12 -12 0 
8 -9 1 0 
5 6 -7 0 
4 4 -13 0 
